c description: tiling of 
c generator: CNFgen (0.9.0)
c copyright: (C) 2012-2020 Massimo Lauria <massimo.lauria@uniroma1.it>
c url: https://massimolauria.net/cnfgen
c
p cnf 20 98
-1 -3 0
-1 -5 0
-1 -15 0
-3 -5 0
-3 -15 0
-5 -15 0
1 3 5 15 0
-1 -15 0
1 15 0
-2 -3 0
-2 -7 0
-2 -8 0
-2 -12 0
-3 -7 0
-3 -8 0
-3 -12 0
-7 -8 0
-7 -12 0
-8 -12 0
2 3 7 8 12 0
-2 -9 0
-2 -14 0
-2 -18 0
-9 -14 0
-9 -18 0
-14 -18 0
2 9 14 18 0
-2 -12 0
-2 -18 0
-12 -18 0
2 12 18 0
-3 -8 0
-3 -10 0
-3 -14 0
-3 -16 0
-3 -20 0
-8 -10 0
-8 -14 0
-8 -16 0
-8 -20 0
-10 -14 0
-10 -16 0
-10 -20 0
-14 -16 0
-14 -20 0
-16 -20 0
3 8 10 14 16 20 0
-3 -11 0
3 11 0
-3 -11 0
-3 -12 0
-3 -15 0
-3 -17 0
-3 -20 0
-11 -12 0
-11 -15 0
-11 -17 0
-11 -20 0
-12 -15 0
-12 -17 0
-12 -20 0
-15 -17 0
-15 -20 0
-17 -20 0
3 11 12 15 17 20 0
-3 -17 0
3 17 0
4 0
-5 -10 0
-5 -15 0
-10 -15 0
5 10 15 0
-5 -10 0
-5 -20 0
-10 -20 0
5 10 20 0
-6 -19 0
6 19 0
-7 -12 0
7 12 0
-8 -12 0
-8 -20 0
-12 -20 0
8 12 20 0
-9 -18 0
9 18 0
13 0
-14 -16 0
-14 -18 0
-14 -20 0
-16 -18 0
-16 -20 0
-18 -20 0
14 16 18 20 0
-14 -16 0
-14 -20 0
-16 -20 0
14 16 20 0